; SPDX-License-Identifier: MPL-2.0
; Copyright (c) 2026 The RIINA Authors.
; Auto-generated from 02_FORMAL/coq/domains/ZKSNARKSecurity.v (98 validations)
; Generated by scripts/generate-full-stack.py
;
; Translation Validation for ZKSNARKSecurity
; Layer 9: Verifies compiler backend preserves formal semantics.
; Each assertion checks source IR ≡ target code for a proven property.

(set-logic QF_LIA)
(set-option :produce-models true)

; IR node representation
(declare-sort IRNode 0)
(declare-sort TargetNode 0)

; zk_secure: source semantics (matches Coq)
(declare-fun source_zk_secure () Bool)
(declare-fun target_zk_secure () Bool)
(assert (= source_zk_secure target_zk_secure))

; snark_secure: source semantics (matches Coq)
(declare-fun source_snark_secure () Bool)
(declare-fun target_snark_secure () Bool)
(assert (= source_snark_secure target_snark_secure))

; setup_secure: source semantics (matches Coq)
(declare-fun source_setup_secure () Bool)
(declare-fun target_setup_secure () Bool)
(assert (= source_setup_secure target_setup_secure))

; zksnark_secure: source semantics (matches Coq)
(declare-fun source_zksnark_secure () Bool)
(declare-fun target_zksnark_secure () Bool)
(assert (= source_zksnark_secure target_zksnark_secure))

; riina_zk: source semantics (matches Coq)
(declare-fun source_riina_zk () Bool)
(declare-fun target_riina_zk () Bool)
(assert (= source_riina_zk target_riina_zk))

; riina_snark: source semantics (matches Coq)
(declare-fun source_riina_snark () Bool)
(declare-fun target_riina_snark () Bool)
(assert (= source_riina_snark target_riina_snark))

; riina_setup: source semantics (matches Coq)
(declare-fun source_riina_setup () Bool)
(declare-fun target_riina_setup () Bool)
(assert (= source_riina_setup target_riina_setup))

; riina_zksnark: source semantics (matches Coq)
(declare-fun source_riina_zksnark () Bool)
(declare-fun target_riina_zksnark () Bool)
(assert (= source_riina_zksnark target_riina_zksnark))

; ke_secure: source semantics (matches Coq)
(declare-fun source_ke_secure () Bool)
(declare-fun target_ke_secure () Bool)
(assert (= source_ke_secure target_ke_secure))

; wr_valid: source semantics (matches Coq)
(declare-fun source_wr_valid () Bool)
(declare-fun target_wr_valid () Bool)
(assert (= source_wr_valid target_wr_valid))

; riina_ke: source semantics (matches Coq)
(declare-fun source_riina_ke () Bool)
(declare-fun target_riina_ke () Bool)
(assert (= source_riina_ke target_riina_ke))

; riina_wr: source semantics (matches Coq)
(declare-fun source_riina_wr () Bool)
(declare-fun target_riina_wr () Bool)
(assert (= source_riina_wr target_riina_wr))

; sim_secure: source semantics (matches Coq)
(declare-fun source_sim_secure () Bool)
(declare-fun target_sim_secure () Bool)
(assert (= source_sim_secure target_sim_secure))

; di_strong: source semantics (matches Coq)
(declare-fun source_di_strong () Bool)
(declare-fun target_di_strong () Bool)
(assert (= source_di_strong target_di_strong))

; riina_sim: source semantics (matches Coq)
(declare-fun source_riina_sim () Bool)
(declare-fun target_riina_sim () Bool)
(assert (= source_riina_sim target_riina_sim))

; riina_di: source semantics (matches Coq)
(declare-fun source_riina_di () Bool)
(declare-fun target_riina_di () Bool)
(assert (= source_riina_di target_riina_di))

; completeness_holds: source semantics (matches Coq)
(declare-fun source_completeness_holds () Bool)
(declare-fun target_completeness_holds () Bool)
(assert (= source_completeness_holds target_completeness_holds))

; riina_prover: source semantics (matches Coq)
(declare-fun source_riina_prover () Bool)
(declare-fun target_riina_prover () Bool)
(assert (= source_riina_prover target_riina_prover))

; riina_verifier: source semantics (matches Coq)
(declare-fun source_riina_verifier () Bool)
(declare-fun target_riina_verifier () Bool)
(assert (= source_riina_verifier target_riina_verifier))

; ps_succinct: source semantics (matches Coq)
(declare-fun source_ps_succinct () Bool)
(declare-fun target_ps_succinct () Bool)
(assert (= source_ps_succinct target_ps_succinct))

; ac_polylog: source semantics (matches Coq)
(declare-fun source_ac_polylog () Bool)
(declare-fun target_ac_polylog () Bool)
(assert (= source_ac_polylog target_ac_polylog))

; riina_proof_size: source semantics (matches Coq)
(declare-fun source_riina_proof_size () Bool)
(declare-fun target_riina_proof_size () Bool)
(assert (= source_riina_proof_size target_riina_proof_size))

; riina_ac: source semantics (matches Coq)
(declare-fun source_riina_ac () Bool)
(declare-fun target_riina_ac () Bool)
(assert (= source_riina_ac target_riina_ac))

; mpc_secure: source semantics (matches Coq)
(declare-fun source_mpc_secure () Bool)
(declare-fun target_mpc_secure () Bool)
(assert (= source_mpc_secure target_mpc_secure))

; tw_secure: source semantics (matches Coq)
(declare-fun source_tw_secure () Bool)
(declare-fun target_tw_secure () Bool)
(assert (= source_tw_secure target_tw_secure))

; riina_mpc: source semantics (matches Coq)
(declare-fun source_riina_mpc () Bool)
(declare-fun target_riina_mpc () Bool)
(assert (= source_riina_mpc target_riina_mpc))

; riina_tw: source semantics (matches Coq)
(declare-fun source_riina_tw () Bool)
(declare-fun target_riina_tw () Bool)
(assert (= source_riina_tw target_riina_tw))

; g16_secure: source semantics (matches Coq)
(declare-fun source_g16_secure () Bool)
(declare-fun target_g16_secure () Bool)
(assert (= source_g16_secure target_g16_secure))

; g16p_valid: source semantics (matches Coq)
(declare-fun source_g16p_valid () Bool)
(declare-fun target_g16p_valid () Bool)
(assert (= source_g16p_valid target_g16p_valid))

; riina_g16: source semantics (matches Coq)
(declare-fun source_riina_g16 () Bool)
(declare-fun target_riina_g16 () Bool)
(assert (= source_riina_g16 target_riina_g16))

; riina_g16_proof: source semantics (matches Coq)
(declare-fun source_riina_g16_proof () Bool)
(declare-fun target_riina_g16_proof () Bool)
(assert (= source_riina_g16_proof target_riina_g16_proof))

; plonk_secure: source semantics (matches Coq)
(declare-fun source_plonk_secure () Bool)
(declare-fun target_plonk_secure () Bool)
(assert (= source_plonk_secure target_plonk_secure))

; pg_valid: source semantics (matches Coq)
(declare-fun source_pg_valid () Bool)
(declare-fun target_pg_valid () Bool)
(assert (= source_pg_valid target_pg_valid))

; riina_plonk: source semantics (matches Coq)
(declare-fun source_riina_plonk () Bool)
(declare-fun target_riina_plonk () Bool)
(assert (= source_riina_plonk target_riina_plonk))

; riina_plonk_gate: source semantics (matches Coq)
(declare-fun source_riina_plonk_gate () Bool)
(declare-fun target_riina_plonk_gate () Bool)
(assert (= source_riina_plonk_gate target_riina_plonk_gate))

; full_zk_secure: source semantics (matches Coq)
(declare-fun source_full_zk_secure () Bool)
(declare-fun target_full_zk_secure () Bool)
(assert (= source_full_zk_secure target_full_zk_secure))

; riina_full_zk: source semantics (matches Coq)
(declare-fun source_riina_full_zk () Bool)
(declare-fun target_riina_full_zk () Bool)
(assert (= source_riina_full_zk target_riina_full_zk))

; se_secure: source semantics (matches Coq)
(declare-fun source_se_secure () Bool)
(declare-fun target_se_secure () Bool)
(assert (= source_se_secure target_se_secure))

; riina_se: source semantics (matches Coq)
(declare-fun source_riina_se () Bool)
(declare-fun target_riina_se () Bool)
(assert (= source_riina_se target_riina_se))

; pst_is_snark: source semantics (matches Coq)
(declare-fun source_pst_is_snark () Bool)
(declare-fun target_pst_is_snark () Bool)
(assert (= source_pst_is_snark target_pst_is_snark))

; pst_is_stark: source semantics (matches Coq)
(declare-fun source_pst_is_stark () Bool)
(declare-fun target_pst_is_stark () Bool)
(assert (= source_pst_is_stark target_pst_is_stark))

; riina_pst: source semantics (matches Coq)
(declare-fun source_riina_pst () Bool)
(declare-fun target_riina_pst () Bool)
(assert (= source_riina_pst target_riina_pst))

; andb_true_iff: translation preserves property (matches Coq: Lemma)
(declare-fun source_andb_true_iff () Bool)
(declare-fun target_andb_true_iff () Bool)
(assert (= source_andb_true_iff target_andb_true_iff))

; andb3_true_iff: translation preserves property (matches Coq: Lemma)
(declare-fun source_andb3_true_iff () Bool)
(declare-fun target_andb3_true_iff () Bool)
(assert (= source_andb3_true_iff target_andb3_true_iff))

; andb4_true_iff: translation preserves property (matches Coq: Lemma)
(declare-fun source_andb4_true_iff () Bool)
(declare-fun target_andb4_true_iff () Bool)
(assert (= source_andb4_true_iff target_andb4_true_iff))

; negb_true_iff: translation preserves property (matches Coq: Lemma)
(declare-fun source_negb_true_iff () Bool)
(declare-fun target_negb_true_iff () Bool)
(assert (= source_negb_true_iff target_negb_true_iff))

; leb_le: translation preserves property (matches Coq: Lemma)
(declare-fun source_leb_le () Bool)
(declare-fun target_leb_le () Bool)
(assert (= source_leb_le target_leb_le))

; ltb_lt: translation preserves property (matches Coq: Lemma)
(declare-fun source_ltb_lt () Bool)
(declare-fun target_ltb_lt () Bool)
(assert (= source_ltb_lt target_ltb_lt))

; orb_true_iff: translation preserves property (matches Coq: Lemma)
(declare-fun source_orb_true_iff () Bool)
(declare-fun target_orb_true_iff () Bool)
(assert (= source_orb_true_iff target_orb_true_iff))

; ZK_001: translation preserves property (matches Coq: Theorem)
(declare-fun source_ZK_001 () Bool)
(declare-fun target_ZK_001 () Bool)
(assert (= source_ZK_001 target_ZK_001))

; ZK_002: translation preserves property (matches Coq: Theorem)
(declare-fun source_ZK_002 () Bool)
(declare-fun target_ZK_002 () Bool)
(assert (= source_ZK_002 target_ZK_002))

; ZK_003: translation preserves property (matches Coq: Theorem)
(declare-fun source_ZK_003 () Bool)
(declare-fun target_ZK_003 () Bool)
(assert (= source_ZK_003 target_ZK_003))

; ZK_004: translation preserves property (matches Coq: Theorem)
(declare-fun source_ZK_004 () Bool)
(declare-fun target_ZK_004 () Bool)
(assert (= source_ZK_004 target_ZK_004))

; ZK_005: translation preserves property (matches Coq: Theorem)
(declare-fun source_ZK_005 () Bool)
(declare-fun target_ZK_005 () Bool)
(assert (= source_ZK_005 target_ZK_005))

; ZK_006: translation preserves property (matches Coq: Theorem)
(declare-fun source_ZK_006 () Bool)
(declare-fun target_ZK_006 () Bool)
(assert (= source_ZK_006 target_ZK_006))

; ZK_007: translation preserves property (matches Coq: Theorem)
(declare-fun source_ZK_007 () Bool)
(declare-fun target_ZK_007 () Bool)
(assert (= source_ZK_007 target_ZK_007))

; ZK_008: translation preserves property (matches Coq: Theorem)
(declare-fun source_ZK_008 () Bool)
(declare-fun target_ZK_008 () Bool)
(assert (= source_ZK_008 target_ZK_008))

; ZK_009: translation preserves property (matches Coq: Theorem)
(declare-fun source_ZK_009 () Bool)
(declare-fun target_ZK_009 () Bool)
(assert (= source_ZK_009 target_ZK_009))

; ZK_010: translation preserves property (matches Coq: Theorem)
(declare-fun source_ZK_010 () Bool)
(declare-fun target_ZK_010 () Bool)
(assert (= source_ZK_010 target_ZK_010))

; ZK_011: translation preserves property (matches Coq: Theorem)
(declare-fun source_ZK_011 () Bool)
(declare-fun target_ZK_011 () Bool)
(assert (= source_ZK_011 target_ZK_011))

; ZK_012: translation preserves property (matches Coq: Theorem)
(declare-fun source_ZK_012 () Bool)
(declare-fun target_ZK_012 () Bool)
(assert (= source_ZK_012 target_ZK_012))

; ZK_013: translation preserves property (matches Coq: Theorem)
(declare-fun source_ZK_013 () Bool)
(declare-fun target_ZK_013 () Bool)
(assert (= source_ZK_013 target_ZK_013))

; ZK_014: translation preserves property (matches Coq: Theorem)
(declare-fun source_ZK_014 () Bool)
(declare-fun target_ZK_014 () Bool)
(assert (= source_ZK_014 target_ZK_014))

; ZK_015: translation preserves property (matches Coq: Theorem)
(declare-fun source_ZK_015 () Bool)
(declare-fun target_ZK_015 () Bool)
(assert (= source_ZK_015 target_ZK_015))

; ZK_016: translation preserves property (matches Coq: Theorem)
(declare-fun source_ZK_016 () Bool)
(declare-fun target_ZK_016 () Bool)
(assert (= source_ZK_016 target_ZK_016))

; ZK_017: translation preserves property (matches Coq: Theorem)
(declare-fun source_ZK_017 () Bool)
(declare-fun target_ZK_017 () Bool)
(assert (= source_ZK_017 target_ZK_017))

; ZK_018: translation preserves property (matches Coq: Theorem)
(declare-fun source_ZK_018 () Bool)
(declare-fun target_ZK_018 () Bool)
(assert (= source_ZK_018 target_ZK_018))

; ZK_019: translation preserves property (matches Coq: Theorem)
(declare-fun source_ZK_019 () Bool)
(declare-fun target_ZK_019 () Bool)
(assert (= source_ZK_019 target_ZK_019))

; ZK_020: translation preserves property (matches Coq: Theorem)
(declare-fun source_ZK_020 () Bool)
(declare-fun target_ZK_020 () Bool)
(assert (= source_ZK_020 target_ZK_020))

; ZK_021: translation preserves property (matches Coq: Theorem)
(declare-fun source_ZK_021 () Bool)
(declare-fun target_ZK_021 () Bool)
(assert (= source_ZK_021 target_ZK_021))

; ZK_022: translation preserves property (matches Coq: Theorem)
(declare-fun source_ZK_022 () Bool)
(declare-fun target_ZK_022 () Bool)
(assert (= source_ZK_022 target_ZK_022))

; ZK_023: translation preserves property (matches Coq: Theorem)
(declare-fun source_ZK_023 () Bool)
(declare-fun target_ZK_023 () Bool)
(assert (= source_ZK_023 target_ZK_023))

; ZK_024: translation preserves property (matches Coq: Theorem)
(declare-fun source_ZK_024 () Bool)
(declare-fun target_ZK_024 () Bool)
(assert (= source_ZK_024 target_ZK_024))

; ZK_025_complete: translation preserves property (matches Coq: Theorem)
(declare-fun source_ZK_025_complete () Bool)
(declare-fun target_ZK_025_complete () Bool)
(assert (= source_ZK_025_complete target_ZK_025_complete))

; ke_001_riina_ke_secure: translation preserves property (matches Coq: Theorem)
(declare-fun source_ke_001_riina_ke_secure () Bool)
(declare-fun target_ke_001_riina_ke_secure () Bool)
(assert (= source_ke_001_riina_ke_secure target_ke_001_riina_ke_secure))

; ke_002_extractor_exists: translation preserves property (matches Coq: Theorem)
(declare-fun source_ke_002_extractor_exists () Bool)
(declare-fun target_ke_002_extractor_exists () Bool)
(assert (= source_ke_002_extractor_exists target_ke_002_extractor_exists))

; ke_003_extractor_polynomial: translation preserves property (matches Coq: Theorem)
(declare-fun source_ke_003_extractor_polynomial () Bool)
(declare-fun target_ke_003_extractor_polynomial () Bool)
(assert (= source_ke_003_extractor_polynomial target_ke_003_extractor_polynomial))

; ke_004_extractor_probability: translation preserves property (matches Coq: Theorem)
(declare-fun source_ke_004_extractor_probability () Bool)
(declare-fun target_ke_004_extractor_probability () Bool)
(assert (= source_ke_004_extractor_probability target_ke_004_extractor_probability))

; ke_005_riina_wr_valid: translation preserves property (matches Coq: Theorem)
(declare-fun source_ke_005_riina_wr_valid () Bool)
(declare-fun target_ke_005_riina_wr_valid () Bool)
(assert (= source_ke_005_riina_wr_valid target_ke_005_riina_wr_valid))

; ke_006_valid_satisfiable: translation preserves property (matches Coq: Theorem)
(declare-fun source_ke_006_valid_satisfiable () Bool)
(declare-fun target_ke_006_valid_satisfiable () Bool)
(assert (= source_ke_006_valid_satisfiable target_ke_006_valid_satisfiable))

; ke_007_positive_statement: translation preserves property (matches Coq: Theorem)
(declare-fun source_ke_007_positive_statement () Bool)
(declare-fun target_ke_007_positive_statement () Bool)
(assert (= source_ke_007_positive_statement target_ke_007_positive_statement))

; ke_008_positive_witness: translation preserves property (matches Coq: Theorem)
(declare-fun source_ke_008_positive_witness () Bool)
(declare-fun target_ke_008_positive_witness () Bool)
(assert (= source_ke_008_positive_witness target_ke_008_positive_witness))

; sim_001_riina_sim_secure: translation preserves property (matches Coq: Theorem)
(declare-fun source_sim_001_riina_sim_secure () Bool)
(declare-fun target_sim_001_riina_sim_secure () Bool)
(assert (= source_sim_001_riina_sim_secure target_sim_001_riina_sim_secure))

; sim_002_simulator_exists: translation preserves property (matches Coq: Theorem)
(declare-fun source_sim_002_simulator_exists () Bool)
(declare-fun target_sim_002_simulator_exists () Bool)
(assert (= source_sim_002_simulator_exists target_sim_002_simulator_exists))

; sim_003_simulator_poly: translation preserves property (matches Coq: Theorem)
(declare-fun source_sim_003_simulator_poly () Bool)
(declare-fun target_sim_003_simulator_poly () Bool)
(assert (= source_sim_003_simulator_poly target_sim_003_simulator_poly))

; sim_004_simulator_indist: translation preserves property (matches Coq: Theorem)
(declare-fun source_sim_004_simulator_indist () Bool)
(declare-fun target_sim_004_simulator_indist () Bool)
(assert (= source_sim_004_simulator_indist target_sim_004_simulator_indist))

; sim_005_simulator_no_witness: translation preserves property (matches Coq: Theorem)
(declare-fun source_sim_005_simulator_no_witness () Bool)
(declare-fun target_sim_005_simulator_no_witness () Bool)
(assert (= source_sim_005_simulator_no_witness target_sim_005_simulator_no_witness))

; sim_006_riina_di_strong: translation preserves property (matches Coq: Theorem)
(declare-fun source_sim_006_riina_di_strong () Bool)
(declare-fun target_sim_006_riina_di_strong () Bool)
(assert (= source_sim_006_riina_di_strong target_sim_006_riina_di_strong))

; sim_007_strong_implies_computational: translation preserves property (matches Coq: Theorem)
(declare-fun source_sim_007_strong_implies_computational () Bool)
(declare-fun target_sim_007_strong_implies_computational () Bool)
(assert (= source_sim_007_strong_implies_computational target_sim_007_strong_implies_computational))

; sim_008_strong_bounded_advantage: translation preserves property (matches Coq: Theorem)
(declare-fun source_sim_008_strong_bounded_advantage () Bool)
(declare-fun target_sim_008_strong_bounded_advantage () Bool)
(assert (= source_sim_008_strong_bounded_advantage target_sim_008_strong_bounded_advantage))

; comp_001_riina_completeness: translation preserves property (matches Coq: Theorem)
(declare-fun source_comp_001_riina_completeness () Bool)
(declare-fun target_comp_001_riina_completeness () Bool)
(assert (= source_comp_001_riina_completeness target_comp_001_riina_completeness))

; comp_002_requires_honest_prover: translation preserves property (matches Coq: Theorem)
(declare-fun source_comp_002_requires_honest_prover () Bool)
(declare-fun target_comp_002_requires_honest_prover () Bool)
(assert (= source_comp_002_requires_honest_prover target_comp_002_requires_honest_prover))

; comp_003_requires_witness: translation preserves property (matches Coq: Theorem)
(declare-fun source_comp_003_requires_witness () Bool)
(declare-fun target_comp_003_requires_witness () Bool)
(assert (= source_comp_003_requires_witness target_comp_003_requires_witness))

; comp_004_requires_protocol: translation preserves property (matches Coq: Theorem)
(declare-fun source_comp_004_requires_protocol () Bool)
(declare-fun target_comp_004_requires_protocol () Bool)
(assert (= source_comp_004_requires_protocol target_comp_004_requires_protocol))

; comp_005_verifier_accepts: translation preserves property (matches Coq: Theorem)
(declare-fun source_comp_005_verifier_accepts () Bool)
(declare-fun target_comp_005_verifier_accepts () Bool)
(assert (= source_comp_005_verifier_accepts target_comp_005_verifier_accepts))

; comp_006_riina_prover_honest: translation preserves property (matches Coq: Theorem)
(declare-fun source_comp_006_riina_prover_honest () Bool)
(declare-fun target_comp_006_riina_prover_honest () Bool)
(assert (= source_comp_006_riina_prover_honest target_comp_006_riina_prover_honest))

; comp_007_riina_verifier_accepts: translation preserves property (matches Coq: Theorem)
(declare-fun source_comp_007_riina_verifier_accepts () Bool)
(declare-fun target_comp_007_riina_verifier_accepts () Bool)
(assert (= source_comp_007_riina_verifier_accepts target_comp_007_riina_verifier_accepts))

; succ_001_riina_succinct: translation preserves property (matches Coq: Theorem)
(declare-fun source_succ_001_riina_succinct () Bool)
(declare-fun target_succ_001_riina_succinct () Bool)
(assert (= source_succ_001_riina_succinct target_succ_001_riina_succinct))

; succ_002_riina_polylog: translation preserves property (matches Coq: Theorem)
(declare-fun source_succ_002_riina_polylog () Bool)
(declare-fun target_succ_002_riina_polylog () Bool)
(assert (= source_succ_002_riina_polylog target_succ_002_riina_polylog))

; succ_003_bounded_size: translation preserves property (matches Coq: Theorem)
(declare-fun source_succ_003_bounded_size () Bool)
(declare-fun target_succ_003_bounded_size () Bool)
(assert (= source_succ_003_bounded_size target_succ_003_bounded_size))

; succ_004_bounded_verification: translation preserves property (matches Coq: Theorem)
(declare-fun source_succ_004_bounded_verification () Bool)
(declare-fun target_succ_004_bounded_verification () Bool)
(assert (= source_succ_004_bounded_verification target_succ_004_bounded_verification))

; succ_005_witness_independent: translation preserves property (matches Coq: Theorem)
(declare-fun source_succ_005_witness_independent () Bool)
(declare-fun target_succ_005_witness_independent () Bool)
(assert (= source_succ_005_witness_independent target_succ_005_witness_independent))

; succ_006_polylog_proof_size: translation preserves property (matches Coq: Theorem)
(declare-fun source_succ_006_polylog_proof_size () Bool)
(declare-fun target_succ_006_polylog_proof_size () Bool)
(assert (= source_succ_006_polylog_proof_size target_succ_006_polylog_proof_size))

; succ_007_polylog_verification: translation preserves property (matches Coq: Theorem)
(declare-fun source_succ_007_polylog_verification () Bool)
(declare-fun target_succ_007_polylog_verification () Bool)
(assert (= source_succ_007_polylog_verification target_succ_007_polylog_verification))

; mpc_001_riina_mpc_secure: translation preserves property (matches Coq: Theorem)
(declare-fun source_mpc_001_riina_mpc_secure () Bool)
(declare-fun target_mpc_001_riina_mpc_secure () Bool)
(assert (= source_mpc_001_riina_mpc_secure target_mpc_001_riina_mpc_secure))

; mpc_002_riina_tw_secure: translation preserves property (matches Coq: Theorem)
(declare-fun source_mpc_002_riina_tw_secure () Bool)
(declare-fun target_mpc_002_riina_tw_secure () Bool)
(assert (= source_mpc_002_riina_tw_secure target_mpc_002_riina_tw_secure))

; mpc_003_multiple_participants: translation preserves property (matches Coq: Theorem)
(declare-fun source_mpc_003_multiple_participants () Bool)
(declare-fun target_mpc_003_multiple_participants () Bool)
(assert (= source_mpc_003_multiple_participants target_mpc_003_multiple_participants))

; mpc_004_valid_threshold: translation preserves property (matches Coq: Theorem)
(declare-fun source_mpc_004_valid_threshold () Bool)
(declare-fun target_mpc_004_valid_threshold () Bool)
(assert (= source_mpc_004_valid_threshold target_mpc_004_valid_threshold))

; mpc_005_verifiable: translation preserves property (matches Coq: Theorem)
(declare-fun source_mpc_005_verifiable () Bool)
(declare-fun target_mpc_005_verifiable () Bool)
(assert (= source_mpc_005_verifiable target_mpc_005_verifiable))

; mpc_006_tw_destroyed: translation preserves property (matches Coq: Theorem)
(declare-fun source_mpc_006_tw_destroyed () Bool)
(declare-fun target_mpc_006_tw_destroyed () Bool)
(assert (= source_mpc_006_tw_destroyed target_mpc_006_tw_destroyed))

; mpc_007_tw_multi_party: translation preserves property (matches Coq: Theorem)
(declare-fun source_mpc_007_tw_multi_party () Bool)
(declare-fun target_mpc_007_tw_multi_party () Bool)
(assert (= source_mpc_007_tw_multi_party target_mpc_007_tw_multi_party))

; g16_001_riina_secure: translation preserves property (matches Coq: Theorem)
(declare-fun source_g16_001_riina_secure () Bool)
(declare-fun target_g16_001_riina_secure () Bool)
(assert (= source_g16_001_riina_secure target_g16_001_riina_secure))

; g16_002_riina_proof_valid: translation preserves property (matches Coq: Theorem)
(declare-fun source_g16_002_riina_proof_valid () Bool)
(declare-fun target_g16_002_riina_proof_valid () Bool)
(assert (= source_g16_002_riina_proof_valid target_g16_002_riina_proof_valid))

; g16_003_pairing_friendly: translation preserves property (matches Coq: Theorem)
(declare-fun source_g16_003_pairing_friendly () Bool)
(declare-fun target_g16_003_pairing_friendly () Bool)
(assert (= source_g16_003_pairing_friendly target_g16_003_pairing_friendly))

; g16_004_three_elements: translation preserves property (matches Coq: Theorem)
(declare-fun source_g16_004_three_elements () Bool)
(declare-fun target_g16_004_three_elements () Bool)
(assert (= source_g16_004_three_elements target_g16_004_three_elements))

; g16_005_bounded_pairings: translation preserves property (matches Coq: Theorem)
(declare-fun source_g16_005_bounded_pairings () Bool)
(declare-fun target_g16_005_bounded_pairings () Bool)
(assert (= source_g16_005_bounded_pairings target_g16_005_bounded_pairings))

; g16_006_valid_curve_points: translation preserves property (matches Coq: Theorem)
(declare-fun source_g16_006_valid_curve_points () Bool)
(declare-fun target_g16_006_valid_curve_points () Bool)
(assert (= source_g16_006_valid_curve_points target_g16_006_valid_curve_points))

; g16_007_valid_subgroup: translation preserves property (matches Coq: Theorem)
(declare-fun source_g16_007_valid_subgroup () Bool)
(declare-fun target_g16_007_valid_subgroup () Bool)
(assert (= source_g16_007_valid_subgroup target_g16_007_valid_subgroup))

; plonk_001_riina_secure: translation preserves property (matches Coq: Theorem)
(declare-fun source_plonk_001_riina_secure () Bool)
(declare-fun target_plonk_001_riina_secure () Bool)
(assert (= source_plonk_001_riina_secure target_plonk_001_riina_secure))

; plonk_002_riina_gate_valid: translation preserves property (matches Coq: Theorem)
(declare-fun source_plonk_002_riina_gate_valid () Bool)
(declare-fun target_plonk_002_riina_gate_valid () Bool)
(assert (= source_plonk_002_riina_gate_valid target_plonk_002_riina_gate_valid))

; plonk_003_universal_setup: translation preserves property (matches Coq: Theorem)
(declare-fun source_plonk_003_universal_setup () Bool)
(declare-fun target_plonk_003_universal_setup () Bool)
(assert (= source_plonk_003_universal_setup target_plonk_003_universal_setup))

; plonk_004_polynomial_commitment: translation preserves property (matches Coq: Theorem)
(declare-fun source_plonk_004_polynomial_commitment () Bool)
(declare-fun target_plonk_004_polynomial_commitment () Bool)
(assert (= source_plonk_004_polynomial_commitment target_plonk_004_polynomial_commitment))

; plonk_005_arithmetic_gates: translation preserves property (matches Coq: Theorem)
(declare-fun source_plonk_005_arithmetic_gates () Bool)
(declare-fun target_plonk_005_arithmetic_gates () Bool)
(assert (= source_plonk_005_arithmetic_gates target_plonk_005_arithmetic_gates))

; plonk_006_bounded_degree: translation preserves property (matches Coq: Theorem)
(declare-fun source_plonk_006_bounded_degree () Bool)
(declare-fun target_plonk_006_bounded_degree () Bool)
(assert (= source_plonk_006_bounded_degree target_plonk_006_bounded_degree))

; plonk_007_sufficient_fan_in: translation preserves property (matches Coq: Theorem)
(declare-fun source_plonk_007_sufficient_fan_in () Bool)
(declare-fun target_plonk_007_sufficient_fan_in () Bool)
(assert (= source_plonk_007_sufficient_fan_in target_plonk_007_sufficient_fan_in))

; full_001_riina_full_zk_secure: translation preserves property (matches Coq: Theorem)
(declare-fun source_full_001_riina_full_zk_secure () Bool)
(declare-fun target_full_001_riina_full_zk_secure () Bool)
(assert (= source_full_001_riina_full_zk_secure target_full_001_riina_full_zk_secure))

; full_002_implies_base: translation preserves property (matches Coq: Theorem)
(declare-fun source_full_002_implies_base () Bool)
(declare-fun target_full_002_implies_base () Bool)
(assert (= source_full_002_implies_base target_full_002_implies_base))

; full_003_implies_ke: translation preserves property (matches Coq: Theorem)
(declare-fun source_full_003_implies_ke () Bool)
(declare-fun target_full_003_implies_ke () Bool)
(assert (= source_full_003_implies_ke target_full_003_implies_ke))

; full_004_implies_sim: translation preserves property (matches Coq: Theorem)
(declare-fun source_full_004_implies_sim () Bool)
(declare-fun target_full_004_implies_sim () Bool)
(assert (= source_full_004_implies_sim target_full_004_implies_sim))

; full_005_implies_succinct: translation preserves property (matches Coq: Theorem)
(declare-fun source_full_005_implies_succinct () Bool)
(declare-fun target_full_005_implies_succinct () Bool)
(assert (= source_full_005_implies_succinct target_full_005_implies_succinct))

; full_006_implies_mpc: translation preserves property (matches Coq: Theorem)
(declare-fun source_full_006_implies_mpc () Bool)
(declare-fun target_full_006_implies_mpc () Bool)
(assert (= source_full_006_implies_mpc target_full_006_implies_mpc))

; full_007_implies_tw: translation preserves property (matches Coq: Theorem)
(declare-fun source_full_007_implies_tw () Bool)
(declare-fun target_full_007_implies_tw () Bool)
(assert (= source_full_007_implies_tw target_full_007_implies_tw))

; full_008_riina_all_properties: translation preserves property (matches Coq: Theorem)
(declare-fun source_full_008_riina_all_properties () Bool)
(declare-fun target_full_008_riina_all_properties () Bool)
(assert (= source_full_008_riina_all_properties target_full_008_riina_all_properties))

; se_001_riina_se_secure: translation preserves property (matches Coq: Theorem)
(declare-fun source_se_001_riina_se_secure () Bool)
(declare-fun target_se_001_riina_se_secure () Bool)
(assert (= source_se_001_riina_se_secure target_se_001_riina_se_secure))

; se_002_security_parameter: translation preserves property (matches Coq: Theorem)
(declare-fun source_se_002_security_parameter () Bool)
(declare-fun target_se_002_security_parameter () Bool)
(assert (= source_se_002_security_parameter target_se_002_security_parameter))

; se_003_statistical_bounded: translation preserves property (matches Coq: Theorem)
(declare-fun source_se_003_statistical_bounded () Bool)
(declare-fun target_se_003_statistical_bounded () Bool)
(assert (= source_se_003_statistical_bounded target_se_003_statistical_bounded))

; pst_001_riina_is_snark: translation preserves property (matches Coq: Theorem)
(declare-fun source_pst_001_riina_is_snark () Bool)
(declare-fun target_pst_001_riina_is_snark () Bool)
(assert (= source_pst_001_riina_is_snark target_pst_001_riina_is_snark))

; pst_002_snark_is_argument: translation preserves property (matches Coq: Theorem)
(declare-fun source_pst_002_snark_is_argument () Bool)
(declare-fun target_pst_002_snark_is_argument () Bool)
(assert (= source_pst_002_snark_is_argument target_pst_002_snark_is_argument))

; pst_003_snark_knowledge: translation preserves property (matches Coq: Theorem)
(declare-fun source_pst_003_snark_knowledge () Bool)
(declare-fun target_pst_003_snark_knowledge () Bool)
(assert (= source_pst_003_snark_knowledge target_pst_003_snark_knowledge))

; pst_004_snark_succinct: translation preserves property (matches Coq: Theorem)
(declare-fun source_pst_004_snark_succinct () Bool)
(declare-fun target_pst_004_snark_succinct () Bool)
(assert (= source_pst_004_snark_succinct target_pst_004_snark_succinct))

; Verify all translation validations are satisfiable
(check-sat)
(exit)
